925737
30 39 6375
39 25 4093
25 34 30137
34 23 31609
23 38 7449
38 29 745
29 36 16895
36 6 22446
6 9 47658
9 17 102410
17 14 42391
14 3 30026
3 16 71701
16 15 36816
15 8 26227
8 35 20127
35 11 5412
11 1 8732
1 21 6578
21 10 5744
10 2 10593
2 27 15288
27 19 17774
19 4 26533
4 24 52566
24 22 45980
22 40 29078
40 18 18404
18 7 20722
7 13 23211
13 28 6411
28 31 12751
31 20 21913
20 32 24202
32 5 3290
5 12 38538
12 33 3967
33 26 15458
26 37 14546
37 30 941
